\* Production_Planning *\
Maximize
Objective: 5 Quantity_Product_1 + 3.5 Quantity_Product_2
 + 4.5 Quantity_Product_3
Subject To
Machine_times_M_Machine_1: 3 Quantity_Product_1 + 5 Quantity_Product_2
 + 4 Quantity_Product_3 <= 540
Machine_times_M_Machine_2: 6 Quantity_Product_1 + Quantity_Product_2
 + 3 Quantity_Product_3 <= 480
End
